%datos parte 1
ACTORES = {Actor1, Actor2, Actor3, Actor4, Actor5, Actor6, Actor7, Actor8 };

Escenas =[| 1 , 1 , 1 , 1 , 0 , 1 , 0 , 1 , 0 , 1 , 1 , 0 , 0 , 0 , 0 , 0 , 0 , 0 , 0 , 0      % Actor 1
          | 1 , 1 , 1 , 0 , 0 , 0 , 1 , 1 , 0 , 1 , 0 , 0 , 1 , 1 , 1 , 0 , 1 , 0 , 0 , 1       % Actor 2
          | 0 , 1 , 1 , 0 , 1 , 0 , 1 , 1 , 0 , 0 , 0 , 0 , 1 , 1 , 1 , 0 , 0 , 0 , 0 , 0       % Actor 3
          | 0 , 0 , 0 , 0 , 0 , 0 , 0 , 0 , 0 , 1 , 1 , 1 , 1 , 0 , 0 , 0 , 0 , 0 , 0 , 0       % Actor 4
          | 0 , 1 , 0 , 0 , 0 , 0 , 1 , 1 , 0 , 0 , 0 , 1 , 0 , 1 , 0 , 0 , 0 , 1 , 1 , 1       % Actor 5
          | 0 , 0 , 0 , 0 , 0 , 0 , 0 , 0 , 0 , 0 , 0 , 0 , 0 , 1 , 1 , 1 , 1 , 1 , 0 , 0      % Actor 6
          | 0 , 0 , 0 , 0 , 1 , 0 , 1 , 1 , 0 , 0 , 0 , 0 , 0 , 0 , 1 , 0 , 0 , 0 , 0 , 0       % Actor 7
          | 0 , 0 , 0 , 0 , 0 , 1 , 1 , 1 , 1 , 0 , 0 , 0 , 0 , 0 , 0 , 0 , 0 , 0 , 0 , 0 |] ; %Actor 8
          
Duracion = [ 2, 1, 1, 1, 1, 3, 1, 1, 1, 2, 1, 1, 2, 1, 2, 1, 1, 2, 1, 1 ] ;
costo = [10, 4, 5, 5, 5, 40, 4, 20];


